p cnf 680 1298
1 2 3 4 0
-1 400 0
-2 400 0
-1 -2 401 0
-3 402 0
-4 402 0
-3 -4 403 0
-400 404 0
-402 404 0
-400 -402 405 0
-401 406 0
-403 406 0
-401 -403 407 0
-405 408 0
-406 408 0
-405 -406 409 0
-408 0
37 38 39 40 0
-37 410 0
-38 410 0
-37 -38 411 0
-39 412 0
-40 412 0
-39 -40 413 0
-410 414 0
-412 414 0
-410 -412 415 0
-411 416 0
-413 416 0
-411 -413 417 0
-415 418 0
-416 418 0
-415 -416 419 0
-418 0
73 74 75 76 0
-73 420 0
-74 420 0
-73 -74 421 0
-75 422 0
-76 422 0
-75 -76 423 0
-420 424 0
-422 424 0
-420 -422 425 0
-421 426 0
-423 426 0
-421 -423 427 0
-425 428 0
-426 428 0
-425 -426 429 0
-428 0
5 6 7 8 0
-5 430 0
-6 430 0
-5 -6 431 0
-7 432 0
-8 432 0
-7 -8 433 0
-430 434 0
-432 434 0
-430 -432 435 0
-431 436 0
-433 436 0
-431 -433 437 0
-435 438 0
-436 438 0
-435 -436 439 0
-438 0
41 42 43 44 0
-41 440 0
-42 440 0
-41 -42 441 0
-43 442 0
-44 442 0
-43 -44 443 0
-440 444 0
-442 444 0
-440 -442 445 0
-441 446 0
-443 446 0
-441 -443 447 0
-445 448 0
-446 448 0
-445 -446 449 0
-448 0
77 78 79 80 0
-77 450 0
-78 450 0
-77 -78 451 0
-79 452 0
-80 452 0
-79 -80 453 0
-450 454 0
-452 454 0
-450 -452 455 0
-451 456 0
-453 456 0
-451 -453 457 0
-455 458 0
-456 458 0
-455 -456 459 0
-458 0
9 10 11 12 0
-9 460 0
-10 460 0
-9 -10 461 0
-11 462 0
-12 462 0
-11 -12 463 0
-460 464 0
-462 464 0
-460 -462 465 0
-461 466 0
-463 466 0
-461 -463 467 0
-465 468 0
-466 468 0
-465 -466 469 0
-468 0
45 46 47 48 0
-45 470 0
-46 470 0
-45 -46 471 0
-47 472 0
-48 472 0
-47 -48 473 0
-470 474 0
-472 474 0
-470 -472 475 0
-471 476 0
-473 476 0
-471 -473 477 0
-475 478 0
-476 478 0
-475 -476 479 0
-478 0
81 82 83 84 0
-81 480 0
-82 480 0
-81 -82 481 0
-83 482 0
-84 482 0
-83 -84 483 0
-480 484 0
-482 484 0
-480 -482 485 0
-481 486 0
-483 486 0
-481 -483 487 0
-485 488 0
-486 488 0
-485 -486 489 0
-488 0
13 14 15 16 0
-13 490 0
-14 490 0
-13 -14 491 0
-15 492 0
-16 492 0
-15 -16 493 0
-490 494 0
-492 494 0
-490 -492 495 0
-491 496 0
-493 496 0
-491 -493 497 0
-495 498 0
-496 498 0
-495 -496 499 0
-498 0
49 50 51 52 0
-49 500 0
-50 500 0
-49 -50 501 0
-51 502 0
-52 502 0
-51 -52 503 0
-500 504 0
-502 504 0
-500 -502 505 0
-501 506 0
-503 506 0
-501 -503 507 0
-505 508 0
-506 508 0
-505 -506 509 0
-508 0
85 86 87 88 0
-85 510 0
-86 510 0
-85 -86 511 0
-87 512 0
-88 512 0
-87 -88 513 0
-510 514 0
-512 514 0
-510 -512 515 0
-511 516 0
-513 516 0
-511 -513 517 0
-515 518 0
-516 518 0
-515 -516 519 0
-518 0
17 18 19 20 0
-17 520 0
-18 520 0
-17 -18 521 0
-19 522 0
-20 522 0
-19 -20 523 0
-520 524 0
-522 524 0
-520 -522 525 0
-521 526 0
-523 526 0
-521 -523 527 0
-525 528 0
-526 528 0
-525 -526 529 0
-528 0
53 54 55 56 0
-53 530 0
-54 530 0
-53 -54 531 0
-55 532 0
-56 532 0
-55 -56 533 0
-530 534 0
-532 534 0
-530 -532 535 0
-531 536 0
-533 536 0
-531 -533 537 0
-535 538 0
-536 538 0
-535 -536 539 0
-538 0
89 90 91 92 0
-89 540 0
-90 540 0
-89 -90 541 0
-91 542 0
-92 542 0
-91 -92 543 0
-540 544 0
-542 544 0
-540 -542 545 0
-541 546 0
-543 546 0
-541 -543 547 0
-545 548 0
-546 548 0
-545 -546 549 0
-548 0
21 22 23 24 0
-21 550 0
-22 550 0
-21 -22 551 0
-23 552 0
-24 552 0
-23 -24 553 0
-550 554 0
-552 554 0
-550 -552 555 0
-551 556 0
-553 556 0
-551 -553 557 0
-555 558 0
-556 558 0
-555 -556 559 0
-558 0
57 58 59 60 0
-57 560 0
-58 560 0
-57 -58 561 0
-59 562 0
-60 562 0
-59 -60 563 0
-560 564 0
-562 564 0
-560 -562 565 0
-561 566 0
-563 566 0
-561 -563 567 0
-565 568 0
-566 568 0
-565 -566 569 0
-568 0
93 94 95 96 0
-93 570 0
-94 570 0
-93 -94 571 0
-95 572 0
-96 572 0
-95 -96 573 0
-570 574 0
-572 574 0
-570 -572 575 0
-571 576 0
-573 576 0
-571 -573 577 0
-575 578 0
-576 578 0
-575 -576 579 0
-578 0
25 26 27 28 0
-25 580 0
-26 580 0
-25 -26 581 0
-27 582 0
-28 582 0
-27 -28 583 0
-580 584 0
-582 584 0
-580 -582 585 0
-581 586 0
-583 586 0
-581 -583 587 0
-585 588 0
-586 588 0
-585 -586 589 0
-588 0
61 62 63 64 0
-61 590 0
-62 590 0
-61 -62 591 0
-63 592 0
-64 592 0
-63 -64 593 0
-590 594 0
-592 594 0
-590 -592 595 0
-591 596 0
-593 596 0
-591 -593 597 0
-595 598 0
-596 598 0
-595 -596 599 0
-598 0
97 98 99 100 0
-97 600 0
-98 600 0
-97 -98 601 0
-99 602 0
-100 602 0
-99 -100 603 0
-600 604 0
-602 604 0
-600 -602 605 0
-601 606 0
-603 606 0
-601 -603 607 0
-605 608 0
-606 608 0
-605 -606 609 0
-608 0
29 30 31 32 0
-29 610 0
-30 610 0
-29 -30 611 0
-31 612 0
-32 612 0
-31 -32 613 0
-610 614 0
-612 614 0
-610 -612 615 0
-611 616 0
-613 616 0
-611 -613 617 0
-615 618 0
-616 618 0
-615 -616 619 0
-618 0
65 66 67 68 0
-65 620 0
-66 620 0
-65 -66 621 0
-67 622 0
-68 622 0
-67 -68 623 0
-620 624 0
-622 624 0
-620 -622 625 0
-621 626 0
-623 626 0
-621 -623 627 0
-625 628 0
-626 628 0
-625 -626 629 0
-628 0
101 102 103 104 0
-101 630 0
-102 630 0
-101 -102 631 0
-103 632 0
-104 632 0
-103 -104 633 0
-630 634 0
-632 634 0
-630 -632 635 0
-631 636 0
-633 636 0
-631 -633 637 0
-635 638 0
-636 638 0
-635 -636 639 0
-638 0
33 34 35 36 0
-33 640 0
-34 640 0
-33 -34 641 0
-35 642 0
-36 642 0
-35 -36 643 0
-640 644 0
-642 644 0
-640 -642 645 0
-641 646 0
-643 646 0
-641 -643 647 0
-645 648 0
-646 648 0
-645 -646 649 0
-648 0
69 70 71 72 0
-69 650 0
-70 650 0
-69 -70 651 0
-71 652 0
-72 652 0
-71 -72 653 0
-650 654 0
-652 654 0
-650 -652 655 0
-651 656 0
-653 656 0
-651 -653 657 0
-655 658 0
-656 658 0
-655 -656 659 0
-658 0
105 106 107 108 0
-105 660 0
-106 660 0
-105 -106 661 0
-107 662 0
-108 662 0
-107 -108 663 0
-660 664 0
-662 664 0
-660 -662 665 0
-661 666 0
-663 666 0
-661 -663 667 0
-665 668 0
-666 668 0
-665 -666 669 0
-668 0
256 265 274 0
-256 217 0
-265 226 0
-274 235 0
257 266 275 0
-257 218 0
-266 227 0
-275 236 0
258 267 276 0
-258 219 0
-267 228 0
-276 237 0
259 268 277 0
-259 220 0
-268 229 0
-277 238 0
260 269 278 0
-260 221 0
-269 230 0
-278 239 0
261 270 279 0
-261 222 0
-270 231 0
-279 240 0
262 271 280 0
-262 223 0
-271 232 0
-280 241 0
263 272 281 0
-263 224 0
-272 233 0
-281 242 0
145 -1 -265 41 0
-37 265 41 0
-145 41 0
146 -2 -265 42 0
-38 265 42 0
-146 42 0
147 -3 -265 43 0
-39 265 43 0
-147 43 0
148 -4 -265 44 0
-40 265 44 0
-148 44 0
181 -37 -274 77 0
-73 274 77 0
-181 77 0
182 -38 -274 78 0
-74 274 78 0
-182 78 0
183 -39 -274 79 0
-75 274 79 0
-183 79 0
184 -40 -274 80 0
-76 274 80 0
-184 80 0
-109 -256 6 0
-1 256 5 0
109 -1 5 0
-110 -256 7 0
-2 256 6 0
110 -2 6 0
-111 -256 8 0
-3 256 7 0
111 -3 7 0
-112 -256 5 0
-4 256 8 0
112 -4 8 0
149 -5 -266 45 0
-41 266 45 0
-149 45 0
150 -6 -266 46 0
-42 266 46 0
-150 46 0
151 -7 -266 47 0
-43 266 47 0
-151 47 0
152 -8 -266 48 0
-44 266 48 0
-152 48 0
185 -41 -275 81 0
-77 275 81 0
-185 81 0
186 -42 -275 82 0
-78 275 82 0
-186 82 0
187 -43 -275 83 0
-79 275 83 0
-187 83 0
188 -44 -275 84 0
-80 275 84 0
-188 84 0
-113 -257 10 0
-5 257 9 0
113 -5 9 0
-114 -257 11 0
-6 257 10 0
114 -6 10 0
-115 -257 12 0
-7 257 11 0
115 -7 11 0
-116 -257 9 0
-8 257 12 0
116 -8 12 0
153 -9 -267 49 0
-45 267 49 0
-153 49 0
154 -10 -267 50 0
-46 267 50 0
-154 50 0
155 -11 -267 51 0
-47 267 51 0
-155 51 0
156 -12 -267 52 0
-48 267 52 0
-156 52 0
189 -45 -276 85 0
-81 276 85 0
-189 85 0
190 -46 -276 86 0
-82 276 86 0
-190 86 0
191 -47 -276 87 0
-83 276 87 0
-191 87 0
192 -48 -276 88 0
-84 276 88 0
-192 88 0
-117 -258 14 0
-9 258 13 0
117 -9 13 0
-118 -258 15 0
-10 258 14 0
118 -10 14 0
-119 -258 16 0
-11 258 15 0
119 -11 15 0
-120 -258 13 0
-12 258 16 0
120 -12 16 0
157 -13 -268 53 0
-49 268 53 0
-157 53 0
158 -14 -268 54 0
-50 268 54 0
-158 54 0
159 -15 -268 55 0
-51 268 55 0
-159 55 0
160 -16 -268 56 0
-52 268 56 0
-160 56 0
193 -49 -277 89 0
-85 277 89 0
-193 89 0
194 -50 -277 90 0
-86 277 90 0
-194 90 0
195 -51 -277 91 0
-87 277 91 0
-195 91 0
196 -52 -277 92 0
-88 277 92 0
-196 92 0
-121 -259 18 0
-13 259 17 0
121 -13 17 0
-122 -259 19 0
-14 259 18 0
122 -14 18 0
-123 -259 20 0
-15 259 19 0
123 -15 19 0
-124 -259 17 0
-16 259 20 0
124 -16 20 0
161 -17 -269 57 0
-53 269 57 0
-161 57 0
162 -18 -269 58 0
-54 269 58 0
-162 58 0
163 -19 -269 59 0
-55 269 59 0
-163 59 0
164 -20 -269 60 0
-56 269 60 0
-164 60 0
197 -53 -278 93 0
-89 278 93 0
-197 93 0
198 -54 -278 94 0
-90 278 94 0
-198 94 0
199 -55 -278 95 0
-91 278 95 0
-199 95 0
200 -56 -278 96 0
-92 278 96 0
-200 96 0
-125 -260 22 0
-17 260 21 0
125 -17 21 0
-126 -260 23 0
-18 260 22 0
126 -18 22 0
-127 -260 24 0
-19 260 23 0
127 -19 23 0
-128 -260 21 0
-20 260 24 0
128 -20 24 0
165 -21 -270 61 0
-57 270 61 0
-165 61 0
166 -22 -270 62 0
-58 270 62 0
-166 62 0
167 -23 -270 63 0
-59 270 63 0
-167 63 0
168 -24 -270 64 0
-60 270 64 0
-168 64 0
201 -57 -279 97 0
-93 279 97 0
-201 97 0
202 -58 -279 98 0
-94 279 98 0
-202 98 0
203 -59 -279 99 0
-95 279 99 0
-203 99 0
204 -60 -279 100 0
-96 279 100 0
-204 100 0
-129 -261 26 0
-21 261 25 0
129 -21 25 0
-130 -261 27 0
-22 261 26 0
130 -22 26 0
-131 -261 28 0
-23 261 27 0
131 -23 27 0
-132 -261 25 0
-24 261 28 0
132 -24 28 0
169 -25 -271 65 0
-61 271 65 0
-169 65 0
170 -26 -271 66 0
-62 271 66 0
-170 66 0
171 -27 -271 67 0
-63 271 67 0
-171 67 0
172 -28 -271 68 0
-64 271 68 0
-172 68 0
205 -61 -280 101 0
-97 280 101 0
-205 101 0
206 -62 -280 102 0
-98 280 102 0
-206 102 0
207 -63 -280 103 0
-99 280 103 0
-207 103 0
208 -64 -280 104 0
-100 280 104 0
-208 104 0
-133 -262 30 0
-25 262 29 0
133 -25 29 0
-134 -262 31 0
-26 262 30 0
134 -26 30 0
-135 -262 32 0
-27 262 31 0
135 -27 31 0
-136 -262 29 0
-28 262 32 0
136 -28 32 0
173 -29 -272 69 0
-65 272 69 0
-173 69 0
174 -30 -272 70 0
-66 272 70 0
-174 70 0
175 -31 -272 71 0
-67 272 71 0
-175 71 0
176 -32 -272 72 0
-68 272 72 0
-176 72 0
209 -65 -281 105 0
-101 281 105 0
-209 105 0
210 -66 -281 106 0
-102 281 106 0
-210 106 0
211 -67 -281 107 0
-103 281 107 0
-211 107 0
212 -68 -281 108 0
-104 281 108 0
-212 108 0
-137 -263 34 0
-29 263 33 0
137 -29 33 0
-138 -263 35 0
-30 263 34 0
138 -30 34 0
-139 -263 36 0
-31 263 35 0
139 -31 35 0
-140 -263 33 0
-32 263 36 0
140 -32 36 0
-109 1 0
-109 73 0
109 -1 -73 0
-110 2 0
-110 74 0
110 -2 -74 0
-111 3 0
-111 75 0
111 -3 -75 0
-112 4 0
-112 76 0
112 -4 -76 0
-145 37 0
-145 1 0
145 -37 -1 0
-146 38 0
-146 2 0
146 -38 -2 0
-147 39 0
-147 3 0
147 -39 -3 0
-148 40 0
-148 4 0
148 -40 -4 0
-181 73 0
-181 37 0
181 -73 -37 0
-182 74 0
-182 38 0
182 -74 -38 0
-183 75 0
-183 39 0
183 -75 -39 0
-184 76 0
-184 40 0
184 -76 -40 0
-113 5 0
-113 77 0
113 -5 -77 0
-114 6 0
-114 78 0
114 -6 -78 0
-115 7 0
-115 79 0
115 -7 -79 0
-116 8 0
-116 80 0
116 -8 -80 0
-149 41 0
-149 5 0
149 -41 -5 0
-150 42 0
-150 6 0
150 -42 -6 0
-151 43 0
-151 7 0
151 -43 -7 0
-152 44 0
-152 8 0
152 -44 -8 0
-185 77 0
-185 41 0
185 -77 -41 0
-186 78 0
-186 42 0
186 -78 -42 0
-187 79 0
-187 43 0
187 -79 -43 0
-188 80 0
-188 44 0
188 -80 -44 0
-117 9 0
-117 81 0
117 -9 -81 0
-118 10 0
-118 82 0
118 -10 -82 0
-119 11 0
-119 83 0
119 -11 -83 0
-120 12 0
-120 84 0
120 -12 -84 0
-153 45 0
-153 9 0
153 -45 -9 0
-154 46 0
-154 10 0
154 -46 -10 0
-155 47 0
-155 11 0
155 -47 -11 0
-156 48 0
-156 12 0
156 -48 -12 0
-189 81 0
-189 45 0
189 -81 -45 0
-190 82 0
-190 46 0
190 -82 -46 0
-191 83 0
-191 47 0
191 -83 -47 0
-192 84 0
-192 48 0
192 -84 -48 0
-121 13 0
-121 85 0
121 -13 -85 0
-122 14 0
-122 86 0
122 -14 -86 0
-123 15 0
-123 87 0
123 -15 -87 0
-124 16 0
-124 88 0
124 -16 -88 0
-157 49 0
-157 13 0
157 -49 -13 0
-158 50 0
-158 14 0
158 -50 -14 0
-159 51 0
-159 15 0
159 -51 -15 0
-160 52 0
-160 16 0
160 -52 -16 0
-193 85 0
-193 49 0
193 -85 -49 0
-194 86 0
-194 50 0
194 -86 -50 0
-195 87 0
-195 51 0
195 -87 -51 0
-196 88 0
-196 52 0
196 -88 -52 0
-125 17 0
-125 89 0
125 -17 -89 0
-126 18 0
-126 90 0
126 -18 -90 0
-127 19 0
-127 91 0
127 -19 -91 0
-128 20 0
-128 92 0
128 -20 -92 0
-161 53 0
-161 17 0
161 -53 -17 0
-162 54 0
-162 18 0
162 -54 -18 0
-163 55 0
-163 19 0
163 -55 -19 0
-164 56 0
-164 20 0
164 -56 -20 0
-197 89 0
-197 53 0
197 -89 -53 0
-198 90 0
-198 54 0
198 -90 -54 0
-199 91 0
-199 55 0
199 -91 -55 0
-200 92 0
-200 56 0
200 -92 -56 0
-129 21 0
-129 93 0
129 -21 -93 0
-130 22 0
-130 94 0
130 -22 -94 0
-131 23 0
-131 95 0
131 -23 -95 0
-132 24 0
-132 96 0
132 -24 -96 0
-165 57 0
-165 21 0
165 -57 -21 0
-166 58 0
-166 22 0
166 -58 -22 0
-167 59 0
-167 23 0
167 -59 -23 0
-168 60 0
-168 24 0
168 -60 -24 0
-201 93 0
-201 57 0
201 -93 -57 0
-202 94 0
-202 58 0
202 -94 -58 0
-203 95 0
-203 59 0
203 -95 -59 0
-204 96 0
-204 60 0
204 -96 -60 0
-133 25 0
-133 97 0
133 -25 -97 0
-134 26 0
-134 98 0
134 -26 -98 0
-135 27 0
-135 99 0
135 -27 -99 0
-136 28 0
-136 100 0
136 -28 -100 0
-169 61 0
-169 25 0
169 -61 -25 0
-170 62 0
-170 26 0
170 -62 -26 0
-171 63 0
-171 27 0
171 -63 -27 0
-172 64 0
-172 28 0
172 -64 -28 0
-205 97 0
-205 61 0
205 -97 -61 0
-206 98 0
-206 62 0
206 -98 -62 0
-207 99 0
-207 63 0
207 -99 -63 0
-208 100 0
-208 64 0
208 -100 -64 0
-137 29 0
-137 101 0
137 -29 -101 0
-138 30 0
-138 102 0
138 -30 -102 0
-139 31 0
-139 103 0
139 -31 -103 0
-140 32 0
-140 104 0
140 -32 -104 0
-173 65 0
-173 29 0
173 -65 -29 0
-174 66 0
-174 30 0
174 -66 -30 0
-175 67 0
-175 31 0
175 -67 -31 0
-176 68 0
-176 32 0
176 -68 -32 0
-209 101 0
-209 65 0
209 -101 -65 0
-210 102 0
-210 66 0
210 -102 -66 0
-211 103 0
-211 67 0
211 -103 -67 0
-212 104 0
-212 68 0
212 -104 -68 0
-141 33 0
-141 105 0
141 -33 -105 0
-142 34 0
-142 106 0
142 -34 -106 0
-143 35 0
-143 107 0
143 -35 -107 0
-144 36 0
-144 108 0
144 -36 -108 0
-177 69 0
-177 33 0
177 -69 -33 0
-178 70 0
-178 34 0
178 -70 -34 0
-179 71 0
-179 35 0
179 -71 -35 0
-180 72 0
-180 36 0
180 -72 -36 0
-213 105 0
-213 69 0
213 -105 -69 0
-214 106 0
-214 70 0
214 -106 -70 0
-215 107 0
-215 71 0
215 -107 -71 0
-216 108 0
-216 72 0
216 -108 -72 0
-217 109 110 111 112 0
-226 -145 0
-226 -146 0
-226 -147 0
-226 -148 0
-235 -181 0
-235 -182 0
-235 -183 0
-235 -184 0
-218 113 114 115 116 0
-227 -149 0
-227 -150 0
-227 -151 0
-227 -152 0
-236 -185 0
-236 -186 0
-236 -187 0
-236 -188 0
-219 117 118 119 120 0
-228 -153 0
-228 -154 0
-228 -155 0
-228 -156 0
-237 -189 0
-237 -190 0
-237 -191 0
-237 -192 0
-220 121 122 123 124 0
-229 -157 0
-229 -158 0
-229 -159 0
-229 -160 0
-238 -193 0
-238 -194 0
-238 -195 0
-238 -196 0
-221 125 126 127 128 0
-230 -161 0
-230 -162 0
-230 -163 0
-230 -164 0
-239 -197 0
-239 -198 0
-239 -199 0
-239 -200 0
-222 129 130 131 132 0
-231 -165 0
-231 -166 0
-231 -167 0
-231 -168 0
-240 -201 0
-240 -202 0
-240 -203 0
-240 -204 0
-223 133 134 135 136 0
-232 -169 0
-232 -170 0
-232 -171 0
-232 -172 0
-241 -205 0
-241 -206 0
-241 -207 0
-241 -208 0
-224 137 138 139 140 0
-233 -173 0
-233 -174 0
-233 -175 0
-233 -176 0
-242 -209 0
-242 -210 0
-242 -211 0
-242 -212 0
-225 141 142 143 144 0
-234 -177 0
-234 -178 0
-234 -179 0
-234 -180 0
-243 -213 0
-243 -214 0
-243 -215 0
-243 -216 0
-670 0
225 671 0
234 671 0
225 234 672 0
243 673 0
-670 673 0
243 -670 674 0
-671 675 0
-673 675 0
-671 -673 676 0
-672 677 0
-674 677 0
-672 -674 678 0
-676 679 0
-677 679 0
-676 -677 680 0
-679 0
-226 -145 0
-226 -146 0
-226 -147 0
-226 -148 0
226 145 146 147 148 0
-235 -181 0
-235 -182 0
-235 -183 0
-235 -184 0
235 181 182 183 184 0
-227 -149 0
-227 -150 0
-227 -151 0
-227 -152 0
227 149 150 151 152 0
-236 -185 0
-236 -186 0
-236 -187 0
-236 -188 0
236 185 186 187 188 0
-228 -153 0
-228 -154 0
-228 -155 0
-228 -156 0
228 153 154 155 156 0
-237 -189 0
-237 -190 0
-237 -191 0
-237 -192 0
237 189 190 191 192 0
-229 -157 0
-229 -158 0
-229 -159 0
-229 -160 0
229 157 158 159 160 0
-238 -193 0
-238 -194 0
-238 -195 0
-238 -196 0
238 193 194 195 196 0
-230 -161 0
-230 -162 0
-230 -163 0
-230 -164 0
230 161 162 163 164 0
-239 -197 0
-239 -198 0
-239 -199 0
-239 -200 0
239 197 198 199 200 0
-231 -165 0
-231 -166 0
-231 -167 0
-231 -168 0
231 165 166 167 168 0
-240 -201 0
-240 -202 0
-240 -203 0
-240 -204 0
240 201 202 203 204 0
-232 -169 0
-232 -170 0
-232 -171 0
-232 -172 0
232 169 170 171 172 0
-241 -205 0
-241 -206 0
-241 -207 0
-241 -208 0
241 205 206 207 208 0
-233 -173 0
-233 -174 0
-233 -175 0
-233 -176 0
233 173 174 175 176 0
-242 -209 0
-242 -210 0
-242 -211 0
-242 -212 0
242 209 210 211 212 0
-234 -177 0
-234 -178 0
-234 -179 0
-234 -180 0
234 177 178 179 180 0
-243 -213 0
-243 -214 0
-243 -215 0
-243 -216 0
243 213 214 215 216 0
253 254 255 0
217 -253 0
-256 -253 0
226 -254 0
-265 -254 0
235 -255 0
-274 -255 0
